(declare-fun ExpandObjSwitcher () Real)
(declare-fun Constructed_Argument_t () String)
(declare-fun Constructed_Argument_2_t () String)
(declare-fun CreateAsClass () Bool)
(declare-fun Constructed_Argument_2_elements_decoder_0_t () String)
(assert (= ExpandObjSwitcher 0.0))
(assert (not (= Constructed_Argument_t "string")))
(assert (not (= Constructed_Argument_t "number")))
(assert (not (= Constructed_Argument_t "boolean")))
(assert (not (= Constructed_Argument_t "object")))
(assert (not (= Constructed_Argument_t "array_number")))
(assert (not (= Constructed_Argument_t "array_string")))
(assert (not (= Constructed_Argument_t "array_bool")))
(assert (not (= Constructed_Argument_t "null")))
(assert (= Constructed_Argument_2_t "object"))
(assert (not CreateAsClass))
(assert (= Constructed_Argument_2_elements_decoder_0_t "string"))
(check-sat)
